1	40
26 77	20 15	35 81	5 49	3 93	37 61	9 78	30 50	12 52	16 55	36 36	1 33	18 56	14 38	11 88	33 76	4 81	32 85	10 23	15 63	2 72	21 83	24 14	0 56	34 18	31 7	39 42	19 19	29 79	8 15	7 36	28 16	22 35	6 76	23 75	25 42	17 44	38 52	27 77	13 67
